\Problem name: 

Minimize
OBJROW: 60 x(15,6,60) + x(11,10,1) + 40 x(17,6,40) + 20 x(17,18,20) + 70 x(16,20,70) + x(35,34,1) + x(0,24,1) + 90 x(12,17,90) + 90 x(28,30,90) + 50 x(31,34,50)
 + x(13,12,1) + 22 x(27,28,22) + 70 x(31,37,70) + 30 x(20,21,30) + 90 x(9,15,90) + 30 x(39,40,30) + 70 x(18,22,70) + 20 x(16,18,20) + 180 x(13,28,180) + 3600 x(35,3,3600)
 + 20 x(15,16,20) + 80 x(10,9,80) + 80 x(32,31,80) + 30 x(37,38,30) + 30 x(22,23,30) + 20 x(9,12,20) + 21 x(8,9,21) + 99 x(24,27,99) + 70 x(34,39,70) + 20 x(30,31,20)
 + 99 x(30,25,99) + x(33,32,1) + 100 x(5,8,100) + x(0,5,1) + 60 z(15,6,60) + z(11,10,1) + 40 z(17,6,40) + 20 z(17,18,20) + z(35,34,1) + 50 z(31,34,50)
 + z(13,12,1) + 22 z(27,28,22) + 30 z(20,21,30) + 30 z(39,40,30) + 20 z(16,18,20) + 180 z(13,28,180) + 3600 z(35,3,3600) + 20 z(15,16,20) + 80 z(10,9,80) + 80 z(32,31,80)
 + 30 z(37,38,30) + 30 z(22,23,30) + 20 z(9,12,20) + 21 z(8,9,21) + 20 z(30,31,20) + 99 z(30,25,99) + z(33,32,1)
Subject To
flow_cst0:  - x(0,24,1) - x(0,5,1) = -0
flow_cst2:  - x(2,1,0) = -0
flow_cst3:  x(35,3,3600) - x(3,1,0) = -0
flow_cst4:  - x(4,1,0) = -0
flow_cst5:  - x(5,8,100) + x(0,5,1) = -2
flow_cst6:  x(15,6,60) + x(17,6,40) = 1
flow_cst7:  x(8,7,0) = -0
flow_cst8:  - x(8,7,0) - x(8,9,21) + x(5,8,100) = -0
flow_cst9:  - x(9,15,90) + x(10,9,80) - x(9,12,20) + x(8,9,21) = -0
flow_cst10:  x(11,10,1) - x(10,9,80) = -0
flow_cst11:  - x(11,10,1) = -1
flow_cst12:  - x(12,17,90) + x(13,12,1) + x(9,12,20) = -0
flow_cst13:  - x(13,12,1) - x(13,28,180) = -2
flow_cst14:  x(15,14,0) + x(17,14,0) = -0
flow_cst15:  - x(15,6,60) - x(15,14,0) + x(9,15,90) - x(15,16,20) = -0
flow_cst16:  - x(16,20,70) - x(16,18,20) + x(15,16,20) = -0
flow_cst17:  - x(17,6,40) - x(17,18,20) + x(12,17,90) - x(17,14,0) = -0
flow_cst18:  x(17,18,20) - x(18,22,70) + x(16,18,20) = -0
flow_cst19:  x(20,19,0) + x(22,19,0) = -0
flow_cst20:  - x(20,19,0) + x(16,20,70) - x(20,21,30) = -0
flow_cst21:  - x(21,1,0) + x(20,21,30) = -0
flow_cst22:  - x(22,19,0) + x(18,22,70) - x(22,23,30) = -0
flow_cst23:  - x(23,1,0) + x(22,23,30) = -0
flow_cst24:  x(0,24,1) - x(24,27,99) = -3
flow_cst25:  x(30,25,99) = 2
flow_cst26:  x(27,26,0) = -0
flow_cst27:  - x(27,28,22) - x(27,26,0) + x(24,27,99) = -0
flow_cst28:  - x(28,30,90) + x(27,28,22) + x(13,28,180) = -0
flow_cst29:  x(30,29,0) = -0
flow_cst30:  x(28,30,90) - x(30,29,0) - x(30,31,20) - x(30,25,99) = -0
flow_cst31:  - x(31,34,50) - x(31,37,70) + x(32,31,80) + x(30,31,20) = -0
flow_cst32:  - x(32,31,80) + x(33,32,1) = -0
flow_cst33:  - x(33,32,1) = -1
flow_cst34:  x(35,34,1) + x(31,34,50) - x(34,39,70) = -0
flow_cst35:  - x(35,34,1) - x(35,3,3600) = -2
flow_cst36:  x(39,36,0) + x(37,36,0) = 2
flow_cst37:  - x(37,36,0) + x(31,37,70) - x(37,38,30) = -0
flow_cst38:  x(37,38,30) - x(38,1,0) = -0
flow_cst39:  - x(39,36,0) - x(39,40,30) + x(34,39,70) = -0
flow_cst40:  - x(40,1,0) + x(39,40,30) = -0
bus_flow_cst2:  - y(2,1,0) = -0
bus_flow_cst3:  y(35,3,3600) - y(3,1,0) = -0
bus_flow_cst4:  - y(4,1,0) = -0
bus_flow_cst5:  - y(5,8,100) + y(0,5,1) = -0
bus_flow_cst6:  y(15,6,60) + y(17,6,40) = -0
bus_flow_cst7:  y(8,7,0) = -0
bus_flow_cst8:  - y(8,7,0) - y(8,9,21) + y(5,8,100) = -0
bus_flow_cst9:  - y(9,15,90) + y(10,9,80) - y(9,12,20) + y(8,9,21) = -0
bus_flow_cst10:  y(11,10,1) - y(10,9,80) = -0
bus_flow_cst11:  - y(11,10,1) = -0
bus_flow_cst12:  - y(12,17,90) + y(13,12,1) + y(9,12,20) = -0
bus_flow_cst13:  - y(13,12,1) - y(13,28,180) = -0
bus_flow_cst14:  y(15,14,0) + y(17,14,0) = -0
bus_flow_cst15:  - y(15,6,60) - y(15,14,0) + y(9,15,90) - y(15,16,20) = -0
bus_flow_cst16:  - y(16,20,70) - y(16,18,20) + y(15,16,20) = -0
bus_flow_cst17:  - y(17,6,40) - y(17,18,20) + y(12,17,90) - y(17,14,0) = -0
bus_flow_cst18:  y(17,18,20) - y(18,22,70) + y(16,18,20) = -0
bus_flow_cst19:  y(20,19,0) + y(22,19,0) = -0
bus_flow_cst20:  - y(20,19,0) + y(16,20,70) - y(20,21,30) = -0
bus_flow_cst21:  - y(21,1,0) + y(20,21,30) = -0
bus_flow_cst22:  - y(22,19,0) + y(18,22,70) - y(22,23,30) = -0
bus_flow_cst23:  - y(23,1,0) + y(22,23,30) = -0
bus_flow_cst24:  y(0,24,1) - y(24,27,99) = -0
bus_flow_cst25:  y(30,25,99) = -0
bus_flow_cst26:  y(27,26,0) = -0
bus_flow_cst27:  - y(27,28,22) - y(27,26,0) + y(24,27,99) = -0
bus_flow_cst28:  - y(28,30,90) + y(27,28,22) + y(13,28,180) = -0
bus_flow_cst29:  y(30,29,0) = -0
bus_flow_cst30:  y(28,30,90) - y(30,29,0) - y(30,31,20) - y(30,25,99) = -0
bus_flow_cst31:  - y(31,34,50) - y(31,37,70) + y(32,31,80) + y(30,31,20) = -0
bus_flow_cst32:  - y(32,31,80) + y(33,32,1) = -0
bus_flow_cst33:  - y(33,32,1) = -0
bus_flow_cst34:  y(35,34,1) + y(31,34,50) - y(34,39,70) = -0
bus_flow_cst35:  - y(35,34,1) - y(35,3,3600) = -0
bus_flow_cst36:  y(39,36,0) + y(37,36,0) = -0
bus_flow_cst37:  - y(37,36,0) + y(31,37,70) - y(37,38,30) = -0
bus_flow_cst38:  y(37,38,30) - y(38,1,0) = -0
bus_flow_cst39:  - y(39,36,0) - y(39,40,30) + y(34,39,70) = -0
bus_flow_cst40:  - y(40,1,0) + y(39,40,30) = -0
source_bus_flow_cst_s:  - y(0,24,1) - y(0,5,1) = -2
target_bus_flow_cst_final:  y(40,1,0) + y(2,1,0) + y(21,1,0) + y(23,1,0) + y(3,1,0) + y(38,1,0) + y(4,1,0) = 2
bus_path_cst162070:  x(16,20,70) -100 y(16,20,70) <= -0
bus_path_cst182270:  x(18,22,70) -100 y(18,22,70) <= -0
bus_path_cst121790:  x(12,17,90) -100 y(12,17,90) <= -0
bus_path_cst91590:  x(9,15,90) -100 y(9,15,90) <= -0
bus_path_cst58100:  x(5,8,100) -100 y(5,8,100) <= -0
bus_path_cst051:  x(0,5,1) -100 y(0,5,1) <= -0
bus_path_cst0241:  x(0,24,1) -100 y(0,24,1) <= -0
bus_path_cst283090:  x(28,30,90) -100 y(28,30,90) <= -0
bus_path_cst313770:  x(31,37,70) -100 y(31,37,70) <= -0
bus_path_cst343970:  x(34,39,70) -100 y(34,39,70) <= -0
bus_path_cst242799:  x(24,27,99) -100 y(24,27,99) <= -0
z_cst_max15660:  x(15,6,60) -100 y(15,6,60) - z(15,6,60) <= 0
z_x_cst15660:  - x(15,6,60) + z(15,6,60) <= -0
z_cst_max11101:  x(11,10,1) -100 y(11,10,1) - z(11,10,1) <= 0
z_x_cst11101:  - x(11,10,1) + z(11,10,1) <= -0
z_cst_max17640:  x(17,6,40) -100 y(17,6,40) - z(17,6,40) <= 0
z_x_cst17640:  - x(17,6,40) + z(17,6,40) <= -0
z_cst_max171820:  x(17,18,20) -100 y(17,18,20) - z(17,18,20) <= 0
z_x_cst171820:  - x(17,18,20) + z(17,18,20) <= -0
z_cst_max35341:  x(35,34,1) -100 y(35,34,1) - z(35,34,1) <= 0
z_x_cst35341:  - x(35,34,1) + z(35,34,1) <= -0
z_cst_max313450:  x(31,34,50) -100 y(31,34,50) - z(31,34,50) <= 0
z_x_cst313450:  - x(31,34,50) + z(31,34,50) <= -0
z_cst_max13121:  x(13,12,1) -100 y(13,12,1) - z(13,12,1) <= 0
z_x_cst13121:  - x(13,12,1) + z(13,12,1) <= -0
z_cst_max272822:  x(27,28,22) -100 y(27,28,22) - z(27,28,22) <= 0
z_x_cst272822:  - x(27,28,22) + z(27,28,22) <= -0
z_cst_max202130:  x(20,21,30) -100 y(20,21,30) - z(20,21,30) <= 0
z_x_cst202130:  - x(20,21,30) + z(20,21,30) <= -0
z_cst_max394030:  x(39,40,30) -100 y(39,40,30) - z(39,40,30) <= 0
z_x_cst394030:  - x(39,40,30) + z(39,40,30) <= -0
z_cst_max161820:  x(16,18,20) -100 y(16,18,20) - z(16,18,20) <= 0
z_x_cst161820:  - x(16,18,20) + z(16,18,20) <= -0
z_cst_max1328180:  x(13,28,180) -100 y(13,28,180) - z(13,28,180) <= 0
z_x_cst1328180:  - x(13,28,180) + z(13,28,180) <= -0
z_cst_max3533600:  x(35,3,3600) -100 y(35,3,3600) - z(35,3,3600) <= 0
z_x_cst3533600:  - x(35,3,3600) + z(35,3,3600) <= -0
z_cst_max151620:  x(15,16,20) -100 y(15,16,20) - z(15,16,20) <= 0
z_x_cst151620:  - x(15,16,20) + z(15,16,20) <= -0
z_cst_max10980:  x(10,9,80) -100 y(10,9,80) - z(10,9,80) <= 0
z_x_cst10980:  - x(10,9,80) + z(10,9,80) <= -0
z_cst_max323180:  x(32,31,80) -100 y(32,31,80) - z(32,31,80) <= 0
z_x_cst323180:  - x(32,31,80) + z(32,31,80) <= -0
z_cst_max373830:  x(37,38,30) -100 y(37,38,30) - z(37,38,30) <= 0
z_x_cst373830:  - x(37,38,30) + z(37,38,30) <= -0
z_cst_max222330:  x(22,23,30) -100 y(22,23,30) - z(22,23,30) <= 0
z_x_cst222330:  - x(22,23,30) + z(22,23,30) <= -0
z_cst_max91220:  x(9,12,20) -100 y(9,12,20) - z(9,12,20) <= 0
z_x_cst91220:  - x(9,12,20) + z(9,12,20) <= -0
z_cst_max8921:  x(8,9,21) -100 y(8,9,21) - z(8,9,21) <= 0
z_x_cst8921:  - x(8,9,21) + z(8,9,21) <= -0
z_cst_max303120:  x(30,31,20) -100 y(30,31,20) - z(30,31,20) <= 0
z_x_cst303120:  - x(30,31,20) + z(30,31,20) <= -0
z_cst_max302599:  x(30,25,99) -100 y(30,25,99) - z(30,25,99) <= 0
z_x_cst302599:  - x(30,25,99) + z(30,25,99) <= -0
z_cst_max33321:  x(33,32,1) -100 y(33,32,1) - z(33,32,1) <= 0
z_x_cst33321:  - x(33,32,1) + z(33,32,1) <= -0
Bounds
 0 <= x(15,6,60) <= 100
 0 <= x(15,14,0) <= 100
 0 <= x(40,1,0) <= 100
 0 <= x(2,1,0) <= 100
 0 <= x(11,10,1) <= 100
 0 <= x(17,6,40) <= 100
 0 <= x(39,36,0) <= 100
 0 <= x(20,19,0) <= 100
 0 <= x(17,18,20) <= 100
 0 <= x(16,20,70) <= 100
 0 <= x(35,34,1) <= 100
 0 <= x(0,24,1) <= 100
 0 <= x(22,19,0) <= 100
 0 <= x(12,17,90) <= 100
 0 <= x(37,36,0) <= 100
 0 <= x(21,1,0) <= 100
 0 <= x(28,30,90) <= 100
 0 <= x(31,34,50) <= 100
 0 <= x(30,29,0) <= 100
 0 <= x(13,12,1) <= 100
 0 <= x(23,1,0) <= 100
 0 <= x(27,28,22) <= 100
 0 <= x(31,37,70) <= 100
 0 <= x(20,21,30) <= 100
 0 <= x(9,15,90) <= 100
 0 <= x(39,40,30) <= 100
 0 <= x(18,22,70) <= 100
 0 <= x(16,18,20) <= 100
 0 <= x(13,28,180) <= 100
 0 <= x(35,3,3600) <= 100
 0 <= x(15,16,20) <= 100
 0 <= x(10,9,80) <= 100
 0 <= x(27,26,0) <= 100
 0 <= x(32,31,80) <= 100
 0 <= x(17,14,0) <= 100
 0 <= x(8,7,0) <= 100
 0 <= x(37,38,30) <= 100
 0 <= x(22,23,30) <= 100
 0 <= x(9,12,20) <= 100
 0 <= x(8,9,21) <= 100
 0 <= x(24,27,99) <= 100
 0 <= x(3,1,0) <= 100
 0 <= x(34,39,70) <= 100
 0 <= x(38,1,0) <= 100
 0 <= x(4,1,0) <= 100
 0 <= x(30,31,20) <= 100
 0 <= x(30,25,99) <= 100
 0 <= x(33,32,1) <= 100
 0 <= x(5,8,100) <= 100
 0 <= x(0,5,1) <= 100
 0 <= y(15,6,60) <= 1
 0 <= y(15,14,0) <= 1
 0 <= y(40,1,0) <= 1
 0 <= y(2,1,0) <= 1
 0 <= y(11,10,1) <= 1
 0 <= y(17,6,40) <= 1
 0 <= y(39,36,0) <= 1
 0 <= y(20,19,0) <= 1
 0 <= y(17,18,20) <= 1
 0 <= y(16,20,70) <= 1
 0 <= y(35,34,1) <= 1
 0 <= y(0,24,1) <= 1
 0 <= y(22,19,0) <= 1
 0 <= y(12,17,90) <= 1
 0 <= y(37,36,0) <= 1
 0 <= y(21,1,0) <= 1
 0 <= y(28,30,90) <= 1
 0 <= y(31,34,50) <= 1
 0 <= y(30,29,0) <= 1
 0 <= y(13,12,1) <= 1
 0 <= y(23,1,0) <= 1
 0 <= y(27,28,22) <= 1
 0 <= y(31,37,70) <= 1
 0 <= y(20,21,30) <= 1
 0 <= y(9,15,90) <= 1
 0 <= y(39,40,30) <= 1
 0 <= y(18,22,70) <= 1
 0 <= y(16,18,20) <= 1
 0 <= y(13,28,180) <= 1
 0 <= y(35,3,3600) <= 1
 0 <= y(15,16,20) <= 1
 0 <= y(10,9,80) <= 1
 0 <= y(27,26,0) <= 1
 0 <= y(32,31,80) <= 1
 0 <= y(17,14,0) <= 1
 0 <= y(8,7,0) <= 1
 0 <= y(37,38,30) <= 1
 0 <= y(22,23,30) <= 1
 0 <= y(9,12,20) <= 1
 0 <= y(8,9,21) <= 1
 0 <= y(24,27,99) <= 1
 0 <= y(3,1,0) <= 1
 0 <= y(34,39,70) <= 1
 0 <= y(38,1,0) <= 1
 0 <= y(4,1,0) <= 1
 0 <= y(30,31,20) <= 1
 0 <= y(30,25,99) <= 1
 0 <= y(33,32,1) <= 1
 0 <= y(5,8,100) <= 1
 0 <= y(0,5,1) <= 1
 0 <= z(15,6,60) <= 100
 0 <= z(11,10,1) <= 100
 0 <= z(17,6,40) <= 100
 0 <= z(17,18,20) <= 100
 0 <= z(35,34,1) <= 100
 0 <= z(31,34,50) <= 100
 0 <= z(13,12,1) <= 100
 0 <= z(27,28,22) <= 100
 0 <= z(20,21,30) <= 100
 0 <= z(39,40,30) <= 100
 0 <= z(16,18,20) <= 100
 0 <= z(13,28,180) <= 100
 0 <= z(35,3,3600) <= 100
 0 <= z(15,16,20) <= 100
 0 <= z(10,9,80) <= 100
 0 <= z(32,31,80) <= 100
 0 <= z(37,38,30) <= 100
 0 <= z(22,23,30) <= 100
 0 <= z(9,12,20) <= 100
 0 <= z(8,9,21) <= 100
 0 <= z(30,31,20) <= 100
 0 <= z(30,25,99) <= 100
 0 <= z(33,32,1) <= 100
Integers
x(15,6,60) x(15,14,0) x(40,1,0) x(2,1,0) x(11,10,1) x(17,6,40) x(39,36,0) x(20,19,0) x(17,18,20) x(16,20,70) 
x(35,34,1) x(0,24,1) x(22,19,0) x(12,17,90) x(37,36,0) x(21,1,0) x(28,30,90) x(31,34,50) x(30,29,0) x(13,12,1) 
x(23,1,0) x(27,28,22) x(31,37,70) x(20,21,30) x(9,15,90) x(39,40,30) x(18,22,70) x(16,18,20) x(13,28,180) x(35,3,3600) 
x(15,16,20) x(10,9,80) x(27,26,0) x(32,31,80) x(17,14,0) x(8,7,0) x(37,38,30) x(22,23,30) x(9,12,20) x(8,9,21) 
x(24,27,99) x(3,1,0) x(34,39,70) x(38,1,0) x(4,1,0) x(30,31,20) x(30,25,99) x(33,32,1) x(5,8,100) x(0,5,1) 
y(15,6,60) y(15,14,0) y(40,1,0) y(2,1,0) y(11,10,1) y(17,6,40) y(39,36,0) y(20,19,0) y(17,18,20) y(16,20,70) 
y(35,34,1) y(0,24,1) y(22,19,0) y(12,17,90) y(37,36,0) y(21,1,0) y(28,30,90) y(31,34,50) y(30,29,0) y(13,12,1) 
y(23,1,0) y(27,28,22) y(31,37,70) y(20,21,30) y(9,15,90) y(39,40,30) y(18,22,70) y(16,18,20) y(13,28,180) y(35,3,3600) 
y(15,16,20) y(10,9,80) y(27,26,0) y(32,31,80) y(17,14,0) y(8,7,0) y(37,38,30) y(22,23,30) y(9,12,20) y(8,9,21) 
y(24,27,99) y(3,1,0) y(34,39,70) y(38,1,0) y(4,1,0) y(30,31,20) y(30,25,99) y(33,32,1) y(5,8,100) y(0,5,1) 
z(15,6,60) z(11,10,1) z(17,6,40) z(17,18,20) z(35,34,1) z(31,34,50) z(13,12,1) z(27,28,22) z(20,21,30) z(39,40,30) 
z(16,18,20) z(13,28,180) z(35,3,3600) z(15,16,20) z(10,9,80) z(32,31,80) z(37,38,30) z(22,23,30) z(9,12,20) z(8,9,21) 
z(30,31,20) z(30,25,99) z(33,32,1) 
End
